p cnf 7230 17
-3022 -3023 0
-2340 3015 0
-787 -2688 -3020 0
787 -3021 0
3020 3021 0
3018 3019 0
2344 -3019 0
-2344 -3018 0
3016 3017 0
2342 -3017 0
-2342 -3016 0
2688 -3021 0
-789 -2690 3023 0
-3014 -3015 0
3014 3015 0
2690 -3023 0
789 -3023 0
